proyfinal/src/viki/013/experimentInOfficeAgust.take6.output/c8e878c3-14f1-4055-931b-5d158e2a31b0.als.dat
{'cnf.clauses': '118081',
 'cnf.totvars': '69608',
 'conflict literals': '7',
 'conflicts': '6',
 'decisions': '655',
 'memused.mb': '15.04',
 'outcome': 'UNSAT',
 'propagations': '21363',
 'restarts': '1',
 'solver.msecs': 36,
 'task.msecs': 125}
