proyfinal/src/viki/013/experimentInOfficeAgust.take6.output/c8e878c3-14f1-4055-931b-5d158e2a31b0.als.out
Reading from standard input... Use '--help' for help.
============================[ Problem Statistics ]=============================
|                                                                             |
|  Number of variables:         69608                                         |
|  Number of clauses:          118081                                         |
|  Parse time:                   0.02 s                                       |
|                                                                             |
============================[ Search Statistics ]==============================
| Conflicts |          ORIGINAL         |          LEARNT          | Progress |
|           |    Vars  Clauses Literals |    Limit  Clauses Lit/Cl |          |
===============================================================================
===============================================================================
restarts              : 1
conflicts             : 6              (164 /sec)
decisions             : 655            (0.00 % random) (17933 /sec)
propagations          : 21363          (584887 /sec)
conflict literals     : 7              (0.00 % deleted)
Memory used           : 15.04 MB
CPU time              : 0.036525 s

UNSATISFIABLE
